LatticeConstant 1.0 Ang
%block LatticeVectors
 14.0000000 0.00000000 0.00000000
 0.00000000 14.0000000 0.00000000
 0.00000000 0.00000000 10.00000000
%endblock LatticeVectors

NumberOfAtoms 12
AtomicCoordinatesFormat Ang
%block AtomicCoordinatesAndAtomicSpecies
 8.23016600 7.71051900 5.00000000 1 #  1: C
 9.19902400 8.26819400 5.00000000 2 #  2: H
 7.00000000 8.42197700 5.00000000 1 #  3: C
 7.00000000 9.54067500 5.00000000 2 #  4: H
 5.76983400 7.71051900 5.00000000 1 #  5: C
 4.80097600 8.26819400 5.00000000 2 #  6: H
 5.76983400 6.28948100 5.00000000 1 #  7: C
 4.80097600 5.73180600 5.00000000 2 #  8: H
 7.00000000 5.57802300 5.00000000 1 #  9: C
 7.00000000 4.45932500 5.00000000 2 # 10: H
 8.23016600 6.28948100 5.00000000 1 # 11: C
 9.19902400 5.73180600 5.00000000 2 # 12: H
%endblock AtomicCoordinatesAndAtomicSpecies

NumberOfSpecies 2
%block ChemicalSpeciesLabel
 1 6 C
 2 1 H
%endblock ChemicalSpeciesLabel
