LatticeConstant 1.0 Ang
%block LatticeVectors
 14.39804800 0.00000000 0.00000000
 0.00000000 15.08135000 0.00000000
 0.00000000 0.00000000 10.00000000
%endblock LatticeVectors

NumberOfAtoms 12
AtomicCoordinatesFormat Ang
%block AtomicCoordinatesAndAtomicSpecies
  1.23016600  0.71051900 -0.00000000 1 #  1: C
  2.19902400  1.26819400  0.00000000 2 #  2: H
  0.00000000  1.42197700 -0.00000000 1 #  3: C
  0.00000000  2.54067500  0.00000000 2 #  4: H
 -1.23016600  0.71051900 -0.00000000 1 #  5: C
 -2.19902400  1.26819400 -0.00000000 2 #  6: H
 -1.23016600 -0.71051900 -0.00000000 1 #  7: C
 -2.19902400 -1.26819400  0.00000000 2 #  8: H
  0.00000000 -1.42197700  0.00000000 1 #  9: C
  0.00000000 -2.54067500  0.00000000 2 # 10: H
  1.23016600 -0.71051900 -0.00000000 1 # 11: C
  2.19902400 -1.26819400 -0.00000000 2 # 12: H
%endblock AtomicCoordinatesAndAtomicSpecies

NumberOfSpecies 2
%block ChemicalSpeciesLabel
 1 6 C
 2 1 H
%endblock ChemicalSpeciesLabel
