SystemLabel siesta_1

#input structure
%include STRUCT.fdf

#Details Calculation
PAO.BasisSize SZP
XC.functional     GGA 
XC.authors        PBE 
MeshCutoff 250. Ry

#Data save
CDF.Save true
CDF.Compress 9
SaveHS true
SaveRho true

#Output

WriteCoorXmol          true         #Save the final coordinates in .xyz format 

