LatticeConstant     5.535 Ang
%block LatticeVectors
  1.000  0.000  0.000
  0.000  1.000  0.000
  0.000  0.000  1.000
%endblock LatticeVectors

NumberOfAtoms       8
AtomicCoordinatesFormat  ScaledbyLatticeVectors
%block AtomicCoordinatesAndAtomicSpecies
    0.000    0.000    0.000   1 #  Si  1
    0.250    0.250    0.250   1 #  Si  2
    0.000    0.500    0.500   1 #  Si  3
    0.250    0.750    0.750   1 #  Si  4
    0.500    0.000    0.500   1 #  Si  5 
    0.750    0.250    0.750   1 #  Si  6 
    0.500    0.500    0.000   1 #  Si  7 
    0.750    0.750    0.250   1 #  Si  8 
%endblock AtomicCoordinatesAndAtomicSpecies

NumberOfSpecies     1
%block ChemicalSpeciesLabel
 1  14  Si
%endblock ChemicalSpeciesLabel
